c preprocessed version of celar07, 45 vertices, 320 edges
p td 45 320
0 1
2 0
23 0
24 0
2 1
23 1
24 1
2 3
24 2
2 22
2 23
2 31
2 32
3 4
3 9
3 10
3 12
3 13
3 8
3 21
3 22
23 3
20 3
30 3
34 3
5 4
9 4
4 13
4 12
4 14
4 21
4 19
22 4
20 4
26 4
27 4
30 4
34 4
6 5
5 13
5 7
5 15
5 18
5 19
5 28
5 14
5 29
5 16
5 17
5 21
20 5
26 5
27 5
30 5
34 5
6 7
6 16
6 15
6 18
6 19
6 28
6 14
6 29
6 21
6 10
20 6
26 6
30 6
34 6
7 8
7 18
7 19
7 28
7 29
20 7
27 7
30 7
34 7
9 8
10 8
11 8
12 8
8 14
8 19
8 28
8 21
22 8
31 8
27 8
30 8
34 8
10 9
11 9
9 13
9 12
22 9
31 9
24 9
27 9
30 9
34 9
10 11
10 12
10 19
10 29
10 15
10 14
10 21
22 10
31 10
27 10
34 10
11 12
11 14
11 21
31 11
27 11
30 11
34 11
13 12
22 12
27 12
30 12
34 12
13 14
13 21
13 19
22 13
20 13
26 13
27 13
30 13
34 13
15 14
18 14
17 14
16 14
14 21
20 14
26 14
34 14
16 15
15 21
20 15
30 15
34 15
16 17
16 21
20 16
26 16
34 16
18 17
17 21
20 17
26 17
27 17
34 17
18 19
18 28
18 29
20 18
26 18
27 18
30 18
34 18
20 19
19 28
19 29
27 19
30 19
34 19
20 21
20 22
20 28
20 29
20 26
27 20
36 20
37 20
30 20
34 20
22 21
26 21
34 21
23 22
30 22
34 22
24 23
23 31
23 32
24 25
32 24
24 31
26 24
34 24
26 25
30 25
27 26
36 26
37 26
30 26
34 26
27 28
27 29
27 30
27 34
27 33
27 35
27 36
27 37
28 29
30 28
34 28
30 29
34 29
30 31
33 30
35 30
36 30
37 30
30 34
32 31
33 32
35 32
33 34
33 35
33 36
33 37
35 34
36 34
37 34
35 36
35 37
36 37
38 42
38 40
38 41
38 6
38 4
38 9
38 12
38 13
38 7
38 16
38 15
38 43
38 25
38 19
38 28
38 44
38 3
38 22
38 24
38 20
38 39
38 26
38 27
38 33
38 35
39 42
39 40
39 41
39 6
39 5
39 4
39 10
39 11
39 12
39 13
39 14
39 8
39 7
39 18
39 17
39 16
39 15
39 21
39 3
39 43
39 24
39 22
39 20
39 19
39 28
39 29
39 44
39 26
39 27
39 33
39 35
39 36
39 37
39 30
39 34
40 44
40 42
40 41
40 43
40 24
40 26
41 44
41 42
41 6
41 15
41 43
41 33
41 34
42 44
42 0
42 1
42 43
42 33
42 35
43 44
43 6
43 3
43 25
43 22
44 0
44 1
